plugin_load('./wavekernel.so')

molecule benzoicacid {
  symmetry c1
  O          2.189488833286    -1.171224035843     0.000782746866
  O          2.339888833286     1.096775964157    -0.000517253134
  C          0.189988833286     0.046975964157    -0.000017253134
  C         -0.531411166714     1.240875964157     0.000282746866
  C         -0.483411166714    -1.174724035843    -0.000317253134
  C         -1.926011166714     1.213375964157     0.000282746866
  C         -1.878111166714    -1.202224035843    -0.000317253134
  C         -2.599211166714    -0.008224035843    -0.000017253134
  C          1.643888833286     0.075975964157    -0.000317253134
  H         -0.025811166714     2.203075964157     0.000382746866
  H          0.038288833286    -2.127624035843    -0.000617253134
  H         -2.487811166714     2.142875964157     0.000482746866
  H         -2.403111166714    -2.153024035843    -0.000517253134
  H         -3.685111166714    -0.029724035843    -0.000017253134
  H          3.170088833286    -1.140524035843     0.001082746866
}

set {
  basis 6-31g*
  reference uhf
  dft_grid_name sg1
}


set wavekernel {
  filename_in vectors9.npy
  filename_out sample_v.npz
  mode sample_v
  num_sample_descriptors 10000

  print 0
  #curve temp
  #curve_min 300.0
  #curve_max 100000.0

  curve mu_prime
  subtract_sad false

  curve_min -0.5
  curve_max 0.5
  temp 1000.0
  # temp 0.0
  num_curve 20
}

energy('scf')
plugin('./wavekernel.so')
