plugin_load('./wavekernel.so')

molecule ch4 {
  symmetry c1
  0 1
  C
  H 1 1.083666
  H 1 1.083681 2 109.472302
  H 1 1.083681 2 109.472301 3 120.000016
  H 1 1.083681 2 109.472289 3 -119.999993
}

set {
  basis 6-31g*
  reference uhf
  dft_grid_name sg0
}


set wavekernel {
  filename_in vectors9.npy
  filename_out discriptor.npy
  temp_max 100000.0
  # mode sample_v
  mode calculate_x
}

energy('scf')
plugin('./wavekernel.so')
