plugin_load('./wavekernel.so')

molecule {
symmetry c1

O
H 1 R
H 1 R 2 A

R = .9
A = 104.5

}

set {
  basis sto-3g
  reference rhf
  # dft_grid_name sg0

}


set wavekernel {
  filename vectors.npy
  # mode sample_v
  mode calculate_x
}

energy('scf')
plugin('./wavekernel.so')
