plugin_load('./wavekernel.so')

molecule {


O
H 1 R
H 1 R 2 A

R = .9
A = 104.5

}

set {
  basis 6-31g*
  reference rhf
  dft_grid_name sg0

}


set wavekernel {
  filename vectors.npy
  mode sample_v
  temp_max 100000.0
  # mode calculate_x
  # mode dump_s
}

energy('scf')
plugin('./wavekernel.so')
