sys.path.insert(0, './..')
import wavekernel

molecule {
O
H 1 R
H 1 R 2 A

R = .9
A = 104.5
}

set {
  basis sto-3g
  reference uhf
}

set wavekernel {
  print 1
}

energy('scf')
wavekernel.sample_descriptors(100)

